
Route #1: 3 42 34 39 17 26 29 25 32 35 
Route #2: 20 33 21 23 37 19 28 18 5 
Route #3: 4 41 27 40 7 38 12 1 14 
Route #4: 2 8 36 15 31 16 
Route #5: 10 9 6 24 22 11 13 
Route #6: 30 
cost 982.09
total time is 4.8